(set-logic QF_S)
(declare-fun var0 () String)
(declare-fun var1 () Int)
(declare-fun var2 () Bool)
(declare-fun var3 () String)
(declare-fun var4 () Int)
(declare-fun var5 () Bool)
(declare-fun var6 () String)
(declare-fun var7 () Int)
(declare-fun var8 () Bool)
(assert (< (str.indexof var3 var3 var4) (str.len (str.substr "'7i{0mBUcf" var1 var4))))
(assert (> (str.indexof var0 "nQ4eR94Z9-" var4) (str.indexof var0 var3 var4)))
(assert (str.in.re var3 re.allchar))
(assert (<= (str.indexof var0 var0 var4) (str.len "(7RM/[GW-%")))
(check-sat)